c "537833.clq"
p edge 202 2976
e 1 17
e 1 18
e 1 19
e 1 20
e 1 25
e 1 28
e 1 29
e 1 31
e 1 33
e 1 34
e 1 35
e 1 38
e 1 39
e 1 54
e 1 57
e 1 61
e 1 76
e 1 79
e 1 90
e 1 125
e 1 129
e 1 152
e 1 171
e 1 173
e 1 178
e 1 179
e 1 195
e 1 196
e 1 197
e 2 17
e 2 18
e 2 20
e 2 22
e 2 24
e 2 25
e 2 27
e 2 33
e 2 36
e 2 38
e 2 40
e 2 45
e 2 47
e 2 58
e 2 62
e 2 85
e 2 86
e 2 88
e 2 101
e 2 102
e 2 120
e 2 141
e 2 150
e 2 153
e 2 154
e 2 166
e 2 198
e 3 17
e 3 18
e 3 19
e 3 20
e 3 21
e 3 23
e 3 24
e 3 26
e 3 28
e 3 31
e 3 37
e 3 38
e 3 39
e 3 42
e 3 58
e 3 63
e 3 70
e 3 89
e 3 97
e 3 114
e 3 120
e 3 124
e 3 125
e 3 163
e 3 173
e 3 187
e 4 17
e 4 18
e 4 19
e 4 20
e 4 21
e 4 22
e 4 26
e 4 28
e 4 29
e 4 30
e 4 31
e 4 33
e 4 34
e 4 41
e 4 45
e 4 46
e 4 47
e 4 56
e 4 70
e 4 71
e 4 72
e 4 81
e 4 108
e 4 126
e 4 129
e 4 139
e 4 150
e 4 166
e 4 167
e 4 174
e 4 187
e 5 17
e 5 18
e 5 19
e 5 20
e 5 21
e 5 22
e 5 23
e 5 24
e 5 25
e 5 26
e 5 27
e 5 29
e 5 32
e 5 40
e 5 41
e 5 43
e 5 44
e 5 49
e 5 52
e 5 54
e 5 55
e 5 63
e 5 64
e 5 70
e 5 73
e 5 75
e 5 81
e 5 86
e 5 90
e 5 94
e 5 97
e 5 103
e 5 109
e 5 117
e 5 121
e 5 124
e 5 126
e 5 128
e 5 139
e 5 142
e 5 151
e 5 155
e 5 156
e 5 157
e 5 158
e 5 160
e 5 161
e 5 173
e 5 175
e 5 177
e 5 179
e 5 182
e 5 192
e 5 198
e 6 17
e 6 18
e 6 19
e 6 20
e 6 21
e 6 22
e 6 23
e 6 24
e 6 25
e 6 26
e 6 27
e 6 28
e 6 29
e 6 35
e 6 40
e 6 42
e 6 48
e 6 51
e 6 54
e 6 56
e 6 57
e 6 60
e 6 69
e 6 79
e 6 84
e 6 88
e 6 92
e 6 95
e 6 106
e 6 121
e 6 154
e 6 165
e 6 169
e 6 176
e 6 178
e 6 179
e 7 17
e 7 18
e 7 19
e 7 22
e 7 23
e 7 26
e 7 30
e 7 32
e 7 34
e 7 39
e 7 44
e 7 46
e 7 50
e 7 56
e 7 57
e 7 59
e 7 60
e 7 61
e 7 62
e 7 68
e 7 73
e 7 103
e 7 104
e 7 107
e 7 113
e 7 117
e 7 128
e 7 134
e 7 148
e 7 149
e 7 157
e 7 164
e 7 166
e 7 170
e 7 196
e 8 17
e 8 18
e 8 19
e 8 20
e 8 21
e 8 22
e 8 25
e 8 26
e 8 27
e 8 29
e 8 30
e 8 32
e 8 33
e 8 38
e 8 44
e 8 49
e 8 52
e 8 55
e 8 59
e 8 63
e 8 66
e 8 70
e 8 73
e 8 75
e 8 82
e 8 88
e 8 99
e 8 106
e 8 114
e 8 115
e 8 119
e 8 120
e 8 125
e 8 141
e 8 142
e 8 152
e 8 159
e 8 160
e 8 169
e 8 175
e 8 183
e 8 185
e 8 199
e 9 17
e 9 18
e 9 19
e 9 20
e 9 21
e 9 22
e 9 23
e 9 24
e 9 26
e 9 27
e 9 31
e 9 32
e 9 33
e 9 34
e 9 36
e 9 37
e 9 39
e 9 42
e 9 43
e 9 44
e 9 53
e 9 56
e 9 59
e 9 60
e 9 67
e 9 69
e 9 80
e 9 84
e 9 86
e 9 92
e 9 93
e 9 99
e 9 102
e 9 107
e 9 111
e 9 115
e 9 117
e 9 119
e 9 120
e 9 121
e 9 131
e 9 142
e 9 144
e 9 145
e 9 146
e 9 164
e 9 168
e 9 172
e 9 182
e 10 17
e 10 18
e 10 19
e 10 20
e 10 21
e 10 22
e 10 23
e 10 24
e 10 25
e 10 26
e 10 28
e 10 30
e 10 32
e 10 34
e 10 35
e 10 36
e 10 37
e 10 38
e 10 45
e 10 49
e 10 51
e 10 53
e 10 55
e 10 60
e 10 62
e 10 63
e 10 64
e 10 72
e 10 74
e 10 77
e 10 81
e 10 85
e 10 86
e 10 87
e 10 93
e 10 95
e 10 96
e 10 117
e 10 118
e 10 123
e 10 125
e 10 127
e 10 134
e 10 141
e 10 147
e 10 148
e 10 156
e 10 161
e 10 165
e 10 168
e 10 171
e 10 174
e 10 183
e 10 189
e 11 17
e 11 18
e 11 19
e 11 20
e 11 21
e 11 22
e 11 23
e 11 27
e 11 30
e 11 35
e 11 38
e 11 39
e 11 41
e 11 43
e 11 44
e 11 48
e 11 50
e 11 58
e 11 59
e 11 60
e 11 61
e 11 66
e 11 70
e 11 78
e 11 82
e 11 83
e 11 85
e 11 89
e 11 97
e 11 100
e 11 114
e 11 120
e 11 143
e 11 144
e 11 151
e 11 152
e 11 153
e 11 155
e 11 161
e 11 162
e 11 170
e 11 192
e 12 17
e 12 19
e 12 20
e 12 21
e 12 24
e 12 25
e 12 28
e 12 34
e 12 43
e 12 45
e 12 49
e 12 64
e 12 69
e 12 73
e 12 76
e 12 80
e 12 82
e 12 88
e 12 107
e 12 108
e 12 110
e 12 115
e 12 118
e 12 129
e 12 140
e 12 142
e 12 151
e 12 160
e 12 161
e 12 174
e 12 177
e 12 188
e 12 193
e 12 199
e 13 17
e 13 18
e 13 19
e 13 21
e 13 22
e 13 23
e 13 24
e 13 25
e 13 26
e 13 27
e 13 28
e 13 31
e 13 32
e 13 37
e 13 41
e 13 42
e 13 50
e 13 62
e 13 63
e 13 64
e 13 76
e 13 81
e 13 96
e 13 97
e 13 105
e 13 115
e 13 118
e 13 132
e 13 141
e 13 153
e 13 155
e 13 162
e 13 177
e 13 188
e 14 17
e 14 18
e 14 19
e 14 21
e 14 22
e 14 23
e 14 30
e 14 34
e 14 37
e 14 46
e 14 49
e 14 56
e 14 62
e 14 63
e 14 66
e 14 75
e 14 84
e 14 89
e 14 93
e 14 99
e 14 103
e 14 111
e 14 112
e 14 113
e 14 121
e 14 126
e 14 128
e 14 135
e 14 138
e 14 147
e 14 161
e 14 163
e 14 165
e 14 192
e 14 193
e 15 17
e 15 18
e 15 19
e 15 20
e 15 23
e 15 25
e 15 30
e 15 37
e 15 43
e 15 45
e 15 58
e 15 69
e 15 72
e 15 77
e 15 90
e 15 108
e 15 112
e 15 113
e 15 122
e 15 127
e 15 147
e 16 17
e 16 18
e 16 20
e 16 21
e 16 24
e 16 36
e 16 51
e 16 65
e 16 66
e 16 73
e 16 85
e 16 122
e 16 177
e 16 190
e 16 191
e 17 18
e 17 19
e 17 20
e 17 21
e 17 22
e 17 23
e 17 24
e 17 25
e 17 26
e 17 27
e 17 28
e 17 29
e 17 30
e 17 31
e 17 33
e 17 35
e 17 36
e 17 37
e 17 39
e 17 43
e 17 44
e 17 49
e 17 51
e 17 52
e 17 54
e 17 55
e 17 57
e 17 68
e 17 69
e 17 71
e 17 73
e 17 76
e 17 79
e 17 85
e 17 86
e 17 93
e 17 94
e 17 95
e 17 96
e 17 101
e 17 102
e 17 103
e 17 104
e 17 106
e 17 107
e 17 108
e 17 110
e 17 116
e 17 118
e 17 124
e 17 125
e 17 126
e 17 130
e 17 131
e 17 132
e 17 134
e 17 139
e 17 143
e 17 149
e 17 151
e 17 153
e 17 157
e 17 158
e 17 161
e 17 162
e 17 166
e 17 167
e 17 169
e 17 171
e 17 179
e 17 186
e 17 187
e 17 189
e 17 191
e 17 197
e 17 200
e 18 19
e 18 20
e 18 21
e 18 22
e 18 23
e 18 24
e 18 25
e 18 26
e 18 27
e 18 28
e 18 29
e 18 30
e 18 32
e 18 33
e 18 34
e 18 35
e 18 36
e 18 37
e 18 39
e 18 40
e 18 41
e 18 42
e 18 43
e 18 44
e 18 45
e 18 47
e 18 48
e 18 49
e 18 50
e 18 52
e 18 53
e 18 56
e 18 57
e 18 58
e 18 59
e 18 63
e 18 66
e 18 67
e 18 68
e 18 70
e 18 71
e 18 72
e 18 76
e 18 78
e 18 85
e 18 86
e 18 87
e 18 92
e 18 93
e 18 104
e 18 107
e 18 118
e 18 121
e 18 155
e 18 159
e 18 163
e 18 170
e 18 176
e 18 179
e 18 180
e 18 185
e 18 188
e 18 189
e 18 190
e 18 202
e 19 20
e 19 21
e 19 22
e 19 23
e 19 24
e 19 25
e 19 26
e 19 27
e 19 28
e 19 29
e 19 30
e 19 31
e 19 32
e 19 33
e 19 34
e 19 37
e 19 38
e 19 39
e 19 40
e 19 42
e 19 44
e 19 47
e 19 48
e 19 50
e 19 51
e 19 52
e 19 54
e 19 56
e 19 57
e 19 60
e 19 66
e 19 67
e 19 69
e 19 71
e 19 76
e 19 77
e 19 78
e 19 79
e 19 80
e 19 82
e 19 86
e 19 87
e 19 89
e 19 94
e 19 96
e 19 102
e 19 103
e 19 105
e 19 106
e 19 107
e 19 112
e 19 116
e 19 121
e 19 123
e 19 124
e 19 133
e 19 136
e 19 140
e 19 141
e 19 146
e 19 156
e 19 160
e 19 161
e 19 163
e 19 164
e 19 165
e 19 167
e 19 168
e 19 169
e 19 171
e 19 174
e 19 175
e 19 177
e 19 181
e 19 191
e 19 195
e 19 202
e 20 21
e 20 22
e 20 23
e 20 24
e 20 26
e 20 27
e 20 28
e 20 29
e 20 31
e 20 32
e 20 34
e 20 36
e 20 37
e 20 38
e 20 39
e 20 40
e 20 42
e 20 46
e 20 47
e 20 48
e 20 49
e 20 51
e 20 53
e 20 54
e 20 59
e 20 60
e 20 61
e 20 62
e 20 65
e 20 67
e 20 71
e 20 76
e 20 77
e 20 78
e 20 83
e 20 87
e 20 95
e 20 101
e 20 104
e 20 105
e 20 108
e 20 112
e 20 113
e 20 114
e 20 118
e 20 119
e 20 120
e 20 121
e 20 122
e 20 123
e 20 130
e 20 140
e 20 141
e 20 148
e 20 151
e 20 158
e 20 160
e 20 162
e 20 176
e 20 180
e 20 182
e 20 183
e 20 186
e 20 189
e 20 192
e 20 195
e 21 22
e 21 23
e 21 24
e 21 25
e 21 26
e 21 27
e 21 28
e 21 29
e 21 30
e 21 31
e 21 33
e 21 34
e 21 35
e 21 39
e 21 46
e 21 48
e 21 51
e 21 52
e 21 53
e 21 58
e 21 60
e 21 64
e 21 69
e 21 70
e 21 73
e 21 75
e 21 80
e 21 81
e 21 84
e 21 85
e 21 88
e 21 91
e 21 96
e 21 97
e 21 98
e 21 109
e 21 110
e 21 116
e 21 118
e 21 119
e 21 123
e 21 129
e 21 133
e 21 135
e 21 138
e 21 139
e 21 140
e 21 144
e 21 145
e 21 146
e 21 148
e 21 156
e 21 161
e 21 162
e 21 165
e 21 166
e 21 169
e 21 174
e 21 176
e 21 181
e 21 186
e 21 188
e 22 23
e 22 24
e 22 25
e 22 26
e 22 27
e 22 28
e 22 29
e 22 30
e 22 31
e 22 32
e 22 33
e 22 34
e 22 35
e 22 37
e 22 38
e 22 39
e 22 43
e 22 45
e 22 46
e 22 47
e 22 48
e 22 49
e 22 50
e 22 52
e 22 54
e 22 55
e 22 57
e 22 59
e 22 61
e 22 62
e 22 63
e 22 64
e 22 65
e 22 68
e 22 69
e 22 71
e 22 74
e 22 75
e 22 76
e 22 78
e 22 82
e 22 90
e 22 91
e 22 93
e 22 95
e 22 99
e 22 100
e 22 111
e 22 118
e 22 119
e 22 121
e 22 127
e 22 131
e 22 134
e 22 137
e 22 147
e 22 149
e 22 152
e 22 154
e 22 156
e 22 157
e 22 162
e 22 167
e 22 181
e 22 187
e 22 192
e 22 199
e 23 24
e 23 25
e 23 26
e 23 27
e 23 28
e 23 29
e 23 30
e 23 31
e 23 34
e 23 35
e 23 36
e 23 38
e 23 42
e 23 44
e 23 46
e 23 47
e 23 48
e 23 50
e 23 53
e 23 54
e 23 60
e 23 64
e 23 67
e 23 68
e 23 72
e 23 73
e 23 74
e 23 77
e 23 81
e 23 82
e 23 86
e 23 90
e 23 92
e 23 93
e 23 100
e 23 101
e 23 104
e 23 105
e 23 108
e 23 109
e 23 110
e 23 114
e 23 116
e 23 123
e 23 125
e 23 126
e 23 129
e 23 134
e 23 144
e 23 155
e 23 158
e 23 160
e 23 164
e 23 184
e 23 191
e 23 192
e 23 196
e 23 197
e 23 202
e 24 25
e 24 27
e 24 28
e 24 29
e 24 34
e 24 36
e 24 37
e 24 40
e 24 41
e 24 42
e 24 46
e 24 49
e 24 54
e 24 56
e 24 58
e 24 61
e 24 66
e 24 67
e 24 68
e 24 73
e 24 75
e 24 76
e 24 77
e 24 79
e 24 83
e 24 91
e 24 97
e 24 107
e 24 109
e 24 110
e 24 111
e 24 118
e 24 124
e 24 130
e 24 132
e 24 133
e 24 148
e 24 152
e 24 160
e 24 162
e 24 165
e 24 169
e 24 170
e 24 178
e 24 180
e 24 193
e 24 198
e 24 199
e 25 29
e 25 30
e 25 31
e 25 32
e 25 33
e 25 35
e 25 36
e 25 38
e 25 39
e 25 41
e 25 46
e 25 47
e 25 48
e 25 49
e 25 52
e 25 53
e 25 54
e 25 55
e 25 57
e 25 62
e 25 63
e 25 64
e 25 66
e 25 72
e 25 74
e 25 75
e 25 79
e 25 80
e 25 81
e 25 83
e 25 94
e 25 97
e 25 99
e 25 110
e 25 111
e 25 112
e 25 113
e 25 115
e 25 119
e 25 120
e 25 122
e 25 126
e 25 128
e 25 129
e 25 132
e 25 143
e 25 145
e 25 150
e 25 151
e 25 162
e 25 174
e 25 181
e 25 187
e 26 27
e 26 28
e 26 29
e 26 31
e 26 32
e 26 33
e 26 35
e 26 40
e 26 41
e 26 42
e 26 45
e 26 46
e 26 47
e 26 48
e 26 51
e 26 52
e 26 53
e 26 55
e 26 60
e 26 61
e 26 70
e 26 71
e 26 72
e 26 84
e 26 87
e 26 89
e 26 91
e 26 97
e 26 99
e 26 100
e 26 102
e 26 110
e 26 113
e 26 116
e 26 126
e 26 129
e 26 131
e 26 133
e 26 135
e 26 145
e 26 146
e 26 152
e 26 153
e 26 158
e 26 161
e 26 162
e 26 168
e 26 173
e 26 174
e 26 176
e 26 177
e 26 184
e 26 188
e 26 193
e 26 197
e 26 198
e 27 29
e 27 30
e 27 32
e 27 33
e 27 35
e 27 36
e 27 38
e 27 39
e 27 40
e 27 41
e 27 43
e 27 46
e 27 49
e 27 50
e 27 51
e 27 53
e 27 54
e 27 55
e 27 56
e 27 57
e 27 66
e 27 68
e 27 72
e 27 74
e 27 79
e 27 80
e 27 82
e 27 84
e 27 85
e 27 88
e 27 93
e 27 94
e 27 95
e 27 98
e 27 101
e 27 103
e 27 110
e 27 113
e 27 121
e 27 124
e 27 125
e 27 126
e 27 127
e 27 132
e 27 137
e 27 140
e 27 144
e 27 148
e 27 151
e 27 153
e 27 160
e 27 170
e 27 172
e 27 173
e 27 185
e 27 194
e 27 200
e 27 202
e 28 31
e 28 32
e 28 34
e 28 35
e 28 36
e 28 39
e 28 42
e 28 43
e 28 45
e 28 46
e 28 49
e 28 50
e 28 54
e 28 55
e 28 58
e 28 65
e 28 69
e 28 75
e 28 81
e 28 87
e 28 90
e 28 92
e 28 96
e 28 109
e 28 114
e 28 120
e 28 125
e 28 127
e 28 128
e 28 130
e 28 135
e 28 137
e 28 139
e 28 140
e 28 147
e 28 151
e 28 152
e 28 157
e 28 163
e 28 168
e 28 174
e 28 175
e 28 184
e 28 190
e 28 194
e 29 30
e 29 31
e 29 33
e 29 35
e 29 37
e 29 41
e 29 43
e 29 44
e 29 48
e 29 55
e 29 62
e 29 65
e 29 68
e 29 70
e 29 74
e 29 75
e 29 80
e 29 83
e 29 84
e 29 86
e 29 87
e 29 88
e 29 90
e 29 94
e 29 104
e 29 109
e 29 115
e 29 122
e 29 136
e 29 142
e 29 162
e 29 170
e 29 174
e 29 176
e 29 181
e 29 183
e 29 189
e 29 200
e 30 31
e 30 32
e 30 33
e 30 35
e 30 36
e 30 37
e 30 42
e 30 46
e 30 47
e 30 48
e 30 52
e 30 56
e 30 59
e 30 64
e 30 68
e 30 74
e 30 80
e 30 82
e 30 89
e 30 94
e 30 98
e 30 100
e 30 102
e 30 106
e 30 107
e 30 114
e 30 122
e 30 126
e 30 131
e 30 145
e 30 148
e 30 151
e 30 152
e 30 164
e 30 177
e 30 189
e 30 201
e 31 32
e 31 33
e 31 34
e 31 35
e 31 36
e 31 37
e 31 38
e 31 39
e 31 41
e 31 43
e 31 44
e 31 45
e 31 47
e 31 48
e 31 49
e 31 51
e 31 52
e 31 55
e 31 58
e 31 60
e 31 62
e 31 63
e 31 65
e 31 67
e 31 70
e 31 74
e 31 76
e 31 80
e 31 81
e 31 85
e 31 87
e 31 88
e 31 91
e 31 98
e 31 103
e 31 113
e 31 121
e 31 122
e 31 129
e 31 133
e 31 139
e 31 143
e 31 148
e 31 154
e 31 163
e 31 165
e 31 167
e 31 176
e 31 178
e 31 179
e 31 183
e 31 190
e 31 195
e 31 199
e 32 37
e 32 38
e 32 40
e 32 41
e 32 43
e 32 50
e 32 51
e 32 54
e 32 64
e 32 68
e 32 78
e 32 84
e 32 94
e 32 106
e 32 138
e 32 140
e 32 152
e 32 156
e 32 157
e 32 170
e 32 190
e 32 194
e 33 39
e 33 40
e 33 42
e 33 51
e 33 52
e 33 57
e 33 62
e 33 64
e 33 69
e 33 70
e 33 73
e 33 78
e 33 79
e 33 83
e 33 106
e 33 110
e 33 114
e 33 124
e 33 130
e 33 146
e 33 147
e 33 152
e 33 153
e 33 162
e 33 196
e 33 201
e 34 36
e 34 38
e 34 40
e 34 44
e 34 45
e 34 48
e 34 53
e 34 56
e 34 58
e 34 66
e 34 73
e 34 74
e 34 80
e 34 92
e 34 96
e 34 98
e 34 99
e 34 100
e 34 102
e 34 107
e 34 109
e 34 115
e 34 116
e 34 127
e 34 135
e 34 140
e 34 157
e 34 167
e 34 181
e 34 184
e 34 196
e 34 197
e 35 36
e 35 40
e 35 41
e 35 42
e 35 44
e 35 53
e 35 56
e 35 60
e 35 61
e 35 62
e 35 63
e 35 67
e 35 72
e 35 81
e 35 84
e 35 87
e 35 90
e 35 100
e 35 109
e 35 110
e 35 119
e 35 134
e 35 136
e 35 141
e 35 158
e 35 163
e 35 169
e 35 170
e 35 185
e 35 191
e 35 194
e 35 198
e 35 199
e 35 200
e 36 38
e 36 40
e 36 41
e 36 44
e 36 45
e 36 49
e 36 55
e 36 57
e 36 63
e 36 64
e 36 65
e 36 71
e 36 72
e 36 74
e 36 86
e 36 99
e 36 104
e 36 107
e 36 108
e 36 127
e 36 132
e 36 143
e 36 150
e 36 151
e 36 155
e 36 157
e 36 159
e 36 160
e 36 164
e 36 171
e 36 191
e 36 195
e 37 46
e 37 47
e 37 53
e 37 57
e 37 61
e 37 64
e 37 67
e 37 69
e 37 72
e 37 73
e 37 75
e 37 86
e 37 93
e 37 96
e 37 98
e 37 99
e 37 104
e 37 112
e 37 116
e 37 117
e 37 121
e 37 132
e 37 149
e 37 155
e 37 166
e 37 169
e 37 173
e 37 176
e 37 189
e 38 40
e 38 41
e 38 43
e 38 44
e 38 45
e 38 47
e 38 51
e 38 53
e 38 54
e 38 56
e 38 58
e 38 63
e 38 65
e 38 69
e 38 74
e 38 76
e 38 77
e 38 82
e 38 87
e 38 88
e 38 89
e 38 90
e 38 93
e 38 95
e 38 96
e 38 98
e 38 100
e 38 107
e 38 112
e 38 117
e 38 120
e 38 129
e 38 137
e 38 143
e 38 145
e 38 148
e 38 166
e 38 170
e 38 172
e 38 174
e 38 186
e 38 190
e 38 198
e 38 202
e 39 40
e 39 41
e 39 43
e 39 45
e 39 48
e 39 50
e 39 52
e 39 58
e 39 69
e 39 70
e 39 71
e 39 73
e 39 74
e 39 94
e 39 98
e 39 99
e 39 101
e 39 108
e 39 110
e 39 113
e 39 115
e 39 117
e 39 119
e 39 127
e 39 142
e 39 152
e 39 159
e 39 171
e 39 178
e 39 183
e 39 189
e 39 195
e 39 197
e 40 42
e 40 43
e 40 44
e 40 45
e 40 49
e 40 51
e 40 52
e 40 59
e 40 62
e 40 68
e 40 78
e 40 87
e 40 90
e 40 93
e 40 96
e 40 98
e 40 103
e 40 116
e 40 119
e 40 123
e 40 145
e 40 150
e 40 152
e 40 154
e 40 183
e 40 184
e 40 186
e 40 192
e 41 42
e 41 46
e 41 47
e 41 50
e 41 52
e 41 55
e 41 57
e 41 58
e 41 59
e 41 62
e 41 66
e 41 67
e 41 71
e 41 75
e 41 76
e 41 92
e 41 94
e 41 101
e 41 102
e 41 104
e 41 105
e 41 110
e 41 128
e 41 130
e 41 132
e 41 149
e 41 150
e 41 153
e 41 154
e 41 156
e 41 163
e 41 164
e 41 166
e 41 181
e 41 186
e 41 187
e 41 194
e 41 195
e 41 196
e 42 48
e 42 56
e 42 57
e 42 58
e 42 60
e 42 65
e 42 66
e 42 69
e 42 71
e 42 79
e 42 81
e 42 91
e 42 101
e 42 108
e 42 117
e 42 125
e 42 129
e 42 131
e 42 149
e 42 154
e 42 163
e 42 182
e 43 45
e 43 46
e 43 47
e 43 50
e 43 53
e 43 55
e 43 61
e 43 62
e 43 64
e 43 65
e 43 67
e 43 73
e 43 74
e 43 77
e 43 78
e 43 81
e 43 86
e 43 87
e 43 99
e 43 105
e 43 114
e 43 120
e 43 122
e 43 129
e 43 180
e 43 185
e 43 197
e 43 200
e 44 53
e 44 65
e 44 71
e 44 82
e 44 84
e 44 85
e 44 87
e 44 91
e 44 103
e 44 111
e 44 124
e 44 127
e 44 130
e 44 134
e 44 141
e 44 152
e 44 159
e 44 163
e 44 166
e 44 182
e 44 188
e 44 189
e 44 193
e 45 47
e 45 50
e 45 51
e 45 59
e 45 66
e 45 67
e 45 68
e 45 69
e 45 72
e 45 77
e 45 82
e 45 84
e 45 88
e 45 91
e 45 96
e 45 99
e 45 100
e 45 101
e 45 112
e 45 127
e 45 133
e 45 139
e 45 140
e 45 142
e 45 157
e 45 158
e 45 172
e 45 175
e 45 178
e 45 179
e 45 185
e 45 186
e 45 189
e 45 197
e 45 198
e 46 50
e 46 51
e 46 52
e 46 58
e 46 59
e 46 61
e 46 65
e 46 77
e 46 78
e 46 82
e 46 89
e 46 102
e 46 104
e 46 107
e 46 110
e 46 124
e 46 129
e 46 136
e 46 137
e 46 154
e 46 161
e 46 162
e 46 191
e 47 50
e 47 59
e 47 63
e 47 80
e 47 82
e 47 85
e 47 90
e 47 95
e 47 98
e 47 100
e 47 113
e 47 128
e 47 130
e 47 131
e 47 143
e 47 144
e 47 147
e 47 154
e 47 168
e 47 177
e 47 178
e 47 188
e 47 189
e 47 194
e 48 54
e 48 56
e 48 57
e 48 58
e 48 68
e 48 71
e 48 72
e 48 76
e 48 79
e 48 91
e 48 93
e 48 98
e 48 104
e 48 105
e 48 108
e 48 112
e 48 115
e 48 129
e 48 136
e 48 137
e 48 165
e 48 185
e 48 189
e 48 190
e 49 53
e 49 64
e 49 67
e 49 70
e 49 72
e 49 73
e 49 83
e 49 84
e 49 92
e 49 94
e 49 96
e 49 105
e 49 111
e 49 115
e 49 117
e 49 118
e 49 119
e 49 123
e 49 125
e 49 126
e 49 137
e 49 138
e 49 142
e 49 144
e 49 156
e 49 162
e 49 172
e 49 178
e 49 179
e 49 193
e 49 195
e 49 202
e 50 54
e 50 61
e 50 65
e 50 66
e 50 70
e 50 71
e 50 76
e 50 77
e 50 81
e 50 92
e 50 96
e 50 109
e 50 114
e 50 115
e 50 120
e 50 125
e 50 133
e 50 139
e 50 146
e 50 149
e 50 150
e 50 162
e 50 168
e 50 172
e 50 178
e 50 185
e 51 55
e 51 77
e 51 78
e 51 79
e 51 83
e 51 87
e 51 97
e 51 101
e 51 109
e 51 110
e 51 111
e 51 114
e 51 116
e 51 117
e 51 123
e 51 164
e 51 165
e 51 180
e 51 188
e 51 201
e 51 202
e 52 55
e 52 57
e 52 72
e 52 75
e 52 78
e 52 80
e 52 82
e 52 83
e 52 94
e 52 102
e 52 110
e 52 119
e 52 122
e 52 130
e 52 131
e 52 136
e 52 145
e 52 173
e 52 189
e 52 193
e 52 195
e 53 60
e 53 61
e 53 65
e 53 70
e 53 77
e 53 78
e 53 79
e 53 82
e 53 86
e 53 88
e 53 91
e 53 92
e 53 96
e 53 97
e 53 98
e 53 100
e 53 102
e 53 103
e 53 105
e 53 106
e 53 107
e 53 109
e 53 114
e 53 122
e 53 137
e 53 141
e 53 142
e 53 146
e 53 153
e 53 172
e 53 185
e 54 56
e 54 59
e 54 60
e 54 62
e 54 67
e 54 68
e 54 77
e 54 89
e 54 95
e 54 99
e 54 100
e 54 101
e 54 117
e 54 120
e 54 146
e 54 147
e 54 167
e 54 191
e 55 59
e 55 61
e 55 66
e 55 83
e 55 85
e 55 86
e 55 115
e 55 121
e 55 127
e 55 134
e 55 135
e 55 139
e 55 148
e 55 149
e 55 162
e 55 166
e 55 192
e 55 193
e 55 201
e 56 61
e 56 66
e 56 71
e 56 74
e 56 87
e 56 92
e 56 97
e 56 100
e 56 111
e 56 113
e 56 116
e 56 146
e 56 153
e 56 154
e 56 159
e 56 166
e 56 184
e 57 68
e 57 75
e 57 78
e 57 80
e 57 81
e 57 90
e 57 94
e 57 103
e 57 108
e 57 109
e 57 120
e 57 132
e 57 133
e 57 135
e 57 143
e 57 144
e 57 146
e 57 183
e 57 194
e 58 59
e 58 61
e 58 64
e 58 79
e 58 89
e 58 112
e 58 113
e 58 116
e 58 124
e 58 127
e 58 155
e 58 167
e 58 182
e 58 183
e 59 60
e 59 63
e 59 79
e 59 83
e 59 92
e 59 102
e 59 103
e 59 118
e 59 123
e 59 128
e 59 130
e 59 133
e 59 134
e 59 137
e 59 150
e 59 160
e 59 187
e 59 191
e 60 70
e 60 89
e 60 95
e 60 100
e 60 111
e 60 125
e 60 134
e 60 142
e 60 159
e 60 180
e 60 200
e 61 68
e 61 79
e 61 88
e 61 95
e 61 98
e 61 102
e 61 106
e 61 111
e 61 112
e 61 123
e 61 128
e 61 131
e 61 133
e 61 139
e 61 145
e 61 159
e 61 171
e 61 178
e 62 63
e 62 65
e 62 69
e 62 74
e 62 81
e 62 86
e 62 93
e 62 94
e 62 104
e 62 105
e 62 118
e 62 126
e 62 130
e 62 131
e 62 132
e 62 138
e 62 143
e 62 153
e 62 167
e 62 169
e 62 173
e 62 200
e 63 65
e 63 67
e 63 75
e 63 86
e 63 90
e 63 91
e 63 92
e 63 98
e 63 99
e 63 114
e 63 115
e 63 116
e 63 129
e 63 133
e 63 144
e 63 145
e 63 155
e 63 161
e 63 168
e 63 171
e 63 174
e 63 180
e 63 194
e 63 200
e 64 67
e 64 95
e 64 104
e 64 119
e 64 143
e 64 153
e 64 180
e 64 201
e 65 76
e 65 80
e 65 89
e 65 90
e 65 92
e 65 105
e 65 121
e 65 138
e 65 150
e 65 154
e 65 160
e 65 169
e 65 175
e 65 190
e 65 195
e 65 199
e 66 73
e 66 75
e 66 80
e 66 88
e 66 90
e 66 111
e 66 114
e 66 128
e 66 136
e 66 138
e 66 139
e 66 150
e 66 155
e 66 156
e 66 179
e 66 186
e 66 187
e 66 196
e 67 83
e 67 85
e 67 93
e 67 104
e 67 141
e 67 143
e 67 179
e 67 198
e 68 77
e 68 83
e 68 91
e 68 100
e 68 102
e 68 132
e 68 156
e 68 157
e 68 158
e 68 182
e 68 187
e 68 192
e 69 71
e 69 75
e 69 84
e 69 95
e 69 111
e 69 127
e 69 136
e 69 145
e 69 150
e 69 176
e 69 186
e 69 199
e 70 77
e 70 83
e 70 109
e 70 131
e 70 158
e 70 165
e 70 170
e 70 176
e 70 177
e 70 199
e 71 72
e 71 91
e 71 97
e 71 99
e 71 106
e 71 109
e 71 117
e 71 125
e 71 130
e 71 158
e 71 163
e 71 168
e 71 169
e 71 174
e 71 176
e 71 185
e 71 189
e 71 190
e 72 112
e 72 116
e 72 122
e 72 131
e 72 148
e 72 164
e 72 173
e 72 187
e 72 196
e 72 199
e 73 74
e 73 78
e 73 93
e 73 95
e 73 112
e 73 119
e 73 122
e 73 124
e 73 139
e 73 151
e 73 168
e 73 178
e 73 183
e 73 188
e 73 192
e 73 196
e 74 79
e 74 80
e 74 103
e 74 123
e 74 141
e 74 144
e 74 200
e 75 76
e 75 84
e 75 88
e 75 101
e 75 102
e 75 135
e 75 136
e 75 146
e 75 148
e 75 157
e 75 185
e 75 196
e 75 200
e 75 202
e 76 92
e 76 105
e 76 124
e 76 140
e 76 150
e 76 170
e 76 188
e 76 194
e 76 200
e 77 78
e 77 82
e 77 83
e 77 87
e 77 89
e 77 113
e 77 121
e 77 126
e 77 134
e 77 136
e 77 138
e 77 140
e 77 147
e 77 149
e 77 151
e 77 153
e 77 159
e 77 163
e 77 167
e 77 175
e 78 85
e 78 96
e 78 107
e 78 108
e 78 110
e 78 123
e 78 132
e 78 136
e 78 137
e 78 138
e 78 146
e 78 161
e 78 172
e 78 186
e 78 202
e 79 95
e 79 96
e 79 100
e 79 106
e 79 114
e 79 136
e 79 144
e 79 149
e 79 151
e 79 167
e 79 168
e 79 170
e 79 180
e 79 182
e 79 184
e 79 192
e 79 198
e 79 201
e 80 81
e 80 83
e 80 88
e 80 89
e 80 91
e 80 98
e 80 104
e 80 105
e 80 106
e 80 118
e 80 127
e 80 138
e 80 159
e 80 169
e 80 171
e 80 195
e 80 197
e 81 84
e 81 85
e 81 103
e 81 125
e 81 133
e 81 135
e 81 146
e 81 167
e 81 181
e 82 101
e 82 106
e 82 114
e 82 122
e 82 126
e 82 127
e 82 135
e 82 154
e 82 168
e 83 84
e 83 85
e 83 101
e 83 105
e 83 112
e 83 119
e 83 134
e 83 135
e 83 137
e 83 141
e 83 145
e 83 149
e 83 157
e 83 161
e 83 178
e 83 195
e 84 92
e 84 97
e 84 117
e 84 129
e 84 132
e 84 145
e 84 175
e 84 186
e 84 191
e 85 117
e 85 132
e 85 183
e 86 88
e 86 89
e 86 97
e 86 103
e 86 123
e 86 131
e 86 143
e 86 144
e 86 181
e 87 91
e 87 102
e 87 116
e 87 117
e 87 133
e 87 149
e 87 156
e 87 158
e 87 185
e 88 89
e 88 108
e 88 111
e 88 115
e 88 116
e 88 118
e 88 119
e 88 120
e 88 147
e 88 155
e 88 175
e 88 179
e 88 181
e 88 196
e 88 198
e 89 90
e 89 91
e 89 94
e 89 103
e 89 109
e 89 121
e 89 133
e 89 147
e 89 160
e 89 163
e 89 179
e 89 200
e 90 93
e 90 105
e 90 106
e 90 115
e 90 126
e 90 135
e 90 175
e 90 184
e 90 196
e 90 200
e 91 107
e 91 121
e 91 122
e 91 130
e 91 140
e 91 142
e 91 150
e 91 158
e 91 175
e 91 178
e 91 180
e 92 104
e 92 111
e 92 118
e 92 123
e 92 145
e 92 146
e 92 150
e 92 173
e 92 182
e 93 94
e 93 97
e 93 98
e 93 99
e 93 105
e 93 106
e 93 144
e 93 147
e 93 170
e 93 171
e 93 173
e 93 181
e 93 193
e 93 199
e 93 201
e 94 95
e 94 119
e 94 124
e 94 128
e 94 130
e 94 165
e 94 174
e 94 178
e 94 182
e 95 108
e 95 112
e 95 113
e 95 115
e 95 130
e 95 147
e 95 156
e 95 186
e 96 97
e 96 101
e 96 136
e 96 146
e 96 151
e 96 176
e 96 185
e 97 101
e 97 107
e 97 112
e 97 117
e 97 124
e 97 138
e 97 176
e 97 182
e 98 148
e 98 170
e 98 172
e 98 188
e 98 191
e 98 197
e 99 145
e 99 149
e 99 159
e 99 195
e 100 125
e 100 134
e 100 136
e 100 138
e 100 150
e 100 156
e 100 159
e 100 171
e 101 108
e 101 118
e 101 177
e 101 180
e 101 182
e 101 193
e 102 106
e 102 111
e 102 113
e 102 127
e 102 129
e 102 160
e 102 169
e 102 175
e 102 193
e 102 197
e 103 113
e 103 126
e 103 133
e 103 141
e 103 151
e 103 152
e 103 181
e 104 139
e 104 166
e 105 108
e 105 122
e 105 155
e 105 157
e 105 175
e 105 177
e 105 183
e 106 109
e 106 125
e 106 128
e 106 136
e 106 137
e 106 138
e 106 140
e 106 169
e 106 185
e 107 123
e 107 154
e 107 155
e 107 158
e 108 120
e 108 148
e 108 155
e 108 161
e 108 171
e 108 175
e 108 177
e 108 185
e 109 143
e 110 124
e 110 147
e 110 150
e 110 156
e 110 159
e 110 164
e 110 180
e 111 116
e 111 128
e 111 138
e 111 145
e 111 181
e 111 191
e 112 130
e 112 142
e 112 168
e 112 193
e 112 194
e 112 198
e 112 202
e 113 142
e 113 160
e 114 135
e 114 176
e 114 180
e 114 201
e 115 124
e 115 131
e 115 135
e 115 153
e 115 171
e 115 190
e 116 120
e 116 122
e 116 135
e 116 157
e 116 160
e 116 177
e 116 179
e 116 184
e 117 192
e 118 137
e 118 139
e 118 160
e 118 197
e 119 123
e 119 126
e 119 131
e 119 133
e 119 137
e 119 138
e 119 140
e 119 142
e 119 173
e 119 201
e 120 128
e 120 131
e 120 141
e 120 167
e 120 169
e 120 194
e 121 128
e 121 136
e 121 149
e 121 154
e 121 165
e 121 166
e 121 175
e 121 176
e 121 199
e 122 132
e 122 135
e 122 141
e 122 171
e 122 172
e 123 132
e 123 143
e 123 164
e 123 174
e 123 192
e 124 164
e 124 170
e 124 184
e 124 186
e 124 196
e 125 134
e 125 142
e 125 187
e 126 165
e 126 167
e 126 187
e 126 197
e 126 201
e 127 128
e 127 137
e 127 143
e 127 152
e 127 178
e 128 134
e 128 137
e 128 139
e 128 140
e 128 152
e 128 159
e 128 163
e 128 197
e 128 200
e 129 134
e 129 141
e 129 143
e 129 144
e 129 161
e 129 171
e 129 181
e 129 195
e 129 202
e 130 146
e 130 149
e 130 154
e 130 156
e 130 163
e 130 180
e 130 182
e 130 187
e 130 195
e 130 199
e 131 149
e 133 153
e 133 172
e 133 193
e 134 148
e 134 184
e 135 138
e 135 140
e 135 142
e 135 155
e 135 162
e 135 165
e 135 169
e 135 184
e 136 139
e 136 159
e 136 164
e 136 190
e 136 191
e 136 196
e 136 201
e 137 144
e 137 178
e 137 185
e 138 144
e 138 147
e 138 158
e 138 167
e 138 191
e 138 194
e 139 147
e 139 155
e 139 184
e 139 190
e 140 151
e 140 154
e 140 157
e 140 173
e 140 184
e 141 174
e 141 177
e 141 192
e 141 201
e 142 158
e 142 166
e 142 172
e 142 188
e 142 190
e 142 198
e 143 148
e 144 153
e 144 193
e 145 166
e 145 168
e 145 170
e 145 173
e 145 176
e 145 181
e 145 189
e 145 196
e 146 158
e 146 172
e 147 191
e 148 161
e 148 172
e 148 188
e 149 165
e 149 180
e 150 202
e 151 173
e 151 190
e 152 156
e 152 168
e 152 198
e 152 202
e 153 163
e 153 174
e 153 199
e 154 157
e 154 164
e 154 168
e 155 164
e 155 173
e 155 184
e 155 199
e 156 159
e 156 164
e 156 187
e 156 200
e 157 186
e 158 184
e 158 196
e 160 166
e 160 201
e 161 186
e 162 167
e 162 194
e 163 175
e 163 187
e 164 165
e 164 172
e 164 200
e 165 171
e 165 190
e 166 193
e 166 201
e 167 179
e 167 188
e 168 177
e 168 179
e 168 183
e 168 194
e 169 182
e 169 188
e 169 192
e 170 172
e 170 177
e 171 181
e 171 182
e 171 183
e 173 182
e 173 183
e 173 197
e 174 202
e 175 180
e 175 186
e 175 191
e 176 187
e 177 193
e 177 195
e 177 198
e 178 179
e 179 183
e 179 198
e 180 188
e 181 192
e 181 194
e 181 201
e 182 202
e 184 190
e 184 202
e 188 189
e 189 194
e 189 201
e 194 199
e 195 197
e 196 198
